Data path: /scratch/opt/lxu/CFLG/benchmarks/tree_B
Instance: treeB.200.20
Result path: /scratch/opt/lxu/CFLG/results/tree_B
Solver: Gurobi
Time limit: 7200
Formulation: LEFPAV
Cover: Large
julia --project=. src/main.jl /scratch/opt/lxu/CFLG/benchmarks/tree_B treeB.200.20 /scratch/opt/lxu/CFLG/results/tree_B Gurobi 7200 LEFPAV Large
The latest version of Julia in the `release` channel is 1.11.5+0.x64.linux.gnu. You currently have `1.11.4+0.x64.linux.gnu` installed. Run:

  juliaup update

in your terminal shell to install Julia 1.11.5+0.x64.linux.gnu and update the `release` channel to that version.
/scratch/opt/lxu/CFLG/benchmarks/tree_B Gurobi 7200.0 /scratch/opt/lxu/CFLG/results/tree_B treeB.200.20 LEFPAV Large
/scratch/opt/lxu/CFLG/benchmarks/tree_B/treeB.200.20

 read graph
data loaded

problem_graph/original graph: node: 200/200 edge: 219/219 dlt: 3.0418830782276105 break_avg_len: 1.5209415391138053 break_max_len: 1.9984544408544425Vbar/V, Ebar/E(85, 200, 104, 219)
Set parameter TokenServer to value "solice01.zib.de"
Set parameter Threads to value 1
Set parameter OutputFlag to value 1
Gurobi Optimizer version 12.0.1 build v12.0.1rc0 (linux64 - "Debian GNU/Linux 12 (bookworm)")

CPU model: Intel(R) Xeon(R) Gold 5122 CPU @ 3.60GHz, instruction set [SSE2|AVX|AVX2|AVX512]
Thread count: 8 physical cores, 16 logical processors, using up to 1 threads

Non-default parameters:
Threads  1

Optimize a model with 271 rows, 435 columns and 725 nonzeros
Model fingerprint: 0xe68b2c96
Coefficient statistics:
  Matrix range     [1e+00, 1e+00]
  Objective range  [1e+00, 1e+00]
  Bounds range     [1e+00, 1e+00]
  RHS range        [1e+00, 1e+00]
Presolve removed 271 rows and 435 columns
Presolve time: 0.00s
Presolve: All rows and columns removed
Iteration    Objective       Primal Inf.    Dual Inf.      Time
       0    4.1000000e+01   0.000000e+00   0.000000e+00      0s

Solved in 0 iterations and 0.00 seconds (0.00 work units)
Optimal objective  4.100000000e+01

User-callback calls 35, time in user-callback 0.00 sec
elapsed CPU time: 1.329399 seconds
Set parameter TokenServer to value "solice01.zib.de"
Set parameter Threads to value 1
Set parameter OutputFlag to value 1
Set parameter MIPGap to value 0.0001
Set parameter MIPGapAbs to value 0.999998
Set parameter TimeLimit to value 7198.670601

 more cuts: false 3.0418830782276105 false
is_attach:trueformulation:LEFPAV0 145 0
Set parameter PreCrush to value 1

 model loaded

Gurobi Optimizer version 12.0.1 build v12.0.1rc0 (linux64 - "Debian GNU/Linux 12 (bookworm)")

CPU model: Intel(R) Xeon(R) Gold 5122 CPU @ 3.60GHz, instruction set [SSE2|AVX|AVX2|AVX512]
Thread count: 8 physical cores, 16 logical processors, using up to 1 threads

Non-default parameters:
TimeLimit  7198.670601
MIPGapAbs  0.999998
PreCrush  1
Threads  1

Optimize a model with 4279 rows, 2511 columns and 11819 nonzeros
Model fingerprint: 0x5bee2201
Variable types: 416 continuous, 2095 integer (2095 binary)
Coefficient statistics:
  Matrix range     [1e-06, 6e+00]
  Objective range  [1e+00, 1e+00]
  Bounds range     [6e-02, 3e+00]
  RHS range        [1e-06, 6e+00]
Presolve removed 2591 rows and 1386 columns
Presolve time: 0.07s
Presolved: 1688 rows, 1125 columns, 6912 nonzeros
Variable types: 186 continuous, 939 integer (939 binary)
Found heuristic solution: objective 135.0000000
Found heuristic solution: objective 130.0000000
Found heuristic solution: objective 90.0000000

Root relaxation: objective 4.394818e+01, 1069 iterations, 0.01 seconds (0.01 work units)

    Nodes    |    Current Node    |     Objective Bounds      |     Work
 Expl Unexpl |  Obj  Depth IntInf | Incumbent    BestBd   Gap | It/Node Time

     0     0   43.94818    0  251   90.00000   43.94818  51.2%     -    0s
H    0     0                      88.0000000   43.94818  50.1%     -    0s
H    0     0                      74.0000000   43.94818  40.6%     -    0s
H    0     0                      72.0000000   43.94818  39.0%     -    0s
H    0     0                      71.0000000   43.94818  38.1%     -    0s
elapsed CPU time: 3.972845346264e6 seconds
     0     0   48.48462    0  271   71.00000   48.48462  31.7%     -    0s
H    0     0                      64.0000000   48.48465  24.2%     -    0s
H    0     0                      63.0000000   48.48465  23.0%     -    0s
elapsed CPU time: 1.383346421868843e13 seconds
     0     0   48.48465    0  268   63.00000   48.48465  23.0%     -    0s
elapsed CPU time: 0.008674 seconds
     0     0   50.01937    0  254   63.00000   50.01937  20.6%     -    0s
H    0     0                      62.0000000   50.01937  19.3%     -    0s
elapsed CPU time: 4.071629005515e6 seconds
     0     0   50.02043    0  251   62.00000   50.02043  19.3%     -    0s
elapsed CPU time: 1.38305544556548e13 seconds
     0     0   51.23527    0  246   62.00000   51.23527  17.4%     -    0s
elapsed CPU time: 0.00962 seconds
     0     0   51.25562    0  255   62.00000   51.25562  17.3%     -    0s
elapsed CPU time: 1.38305544556548e13 seconds
     0     0   51.25786    0  254   62.00000   51.25786  17.3%     -    0s
elapsed CPU time: 0.008783 seconds
     0     0   51.73333    0  223   62.00000   51.73333  16.6%     -    1s
elapsed CPU time: 0.009236 seconds
     0     0   51.73333    0  211   62.00000   51.73333  16.6%     -    1s
elapsed CPU time: 0.043114 seconds
     0     0   51.73333    0  219   62.00000   51.73333  16.6%     -    1s
elapsed CPU time: 0.00859 seconds
     0     0   51.76111    0  229   62.00000   51.76111  16.5%     -    1s
elapsed CPU time: 0.008485 seconds
     0     0   51.76111    0  230   62.00000   51.76111  16.5%     -    1s
elapsed CPU time: 0.00851 seconds
     0     0   51.76613    0  185   62.00000   51.76613  16.5%     -    1s
elapsed CPU time: 9.223372036854783e12 seconds
     0     0   51.84947    0  222   62.00000   51.84947  16.4%     -    1s
elapsed CPU time: 8.340358337405461e9 seconds
     0     0   51.84947    0  234   62.00000   51.84947  16.4%     -    1s
elapsed CPU time: 1.3822650487469516e13 seconds
     0     0   51.84947    0  231   62.00000   51.84947  16.4%     -    1s
elapsed CPU time: 0.008959 seconds
     0     0   51.91389    0  227   62.00000   51.91389  16.3%     -    1s
elapsed CPU time: 0.008694 seconds
     0     0   51.91389    0  242   62.00000   51.91389  16.3%     -    1s
elapsed CPU time: 0.008721 seconds
     0     0   51.91389    0  236   62.00000   51.91389  16.3%     -    1s
H    0     0                      61.0000000   51.94167  14.8%     -    1s
elapsed CPU time: 0.008703 seconds
     0     0   51.94167    0  220   61.00000   51.94167  14.8%     -    1s
elapsed CPU time: 0.008491 seconds
     0     0   51.98179    0  161   61.00000   51.98179  14.8%     -    1s
elapsed CPU time: 9.230410036553982e12 seconds
     0     0   51.98179    0  251   61.00000   51.98179  14.8%     -    1s
elapsed CPU time: 0.008842 seconds
     0     0   52.03194    0  212   61.00000   52.03194  14.7%     -    1s
elapsed CPU time: 4.623933749032133e12 seconds
     0     0   52.13611    0  236   61.00000   52.13611  14.5%     -    1s
elapsed CPU time: 0.008672 seconds
     0     0   52.13611    0  241   61.00000   52.13611  14.5%     -    1s
H    0     0                      60.0000000   52.15278  13.1%     -    1s
H    0     0                      59.0000000   52.15278  11.6%     -    1s
elapsed CPU time: 0.008613 seconds
     0     0   52.15278    0  250   59.00000   52.15278  11.6%     -    1s
elapsed CPU time: 0.008548 seconds
     0     0   52.15278    0  255   59.00000   52.15278  11.6%     -    1s
elapsed CPU time: 0.008415 seconds
     0     0   52.15278    0  167   59.00000   52.15278  11.6%     -    1s
elapsed CPU time: 0.029694 seconds
elapsed CPU time: 3.972844757673e6 seconds
     0     2   52.16667    0  187   59.00000   52.16667  11.6%     -    1s
  1182   445   58.00000   21    6   59.00000   58.00000  1.69%  38.1    5s
  5341   606     cutoff   29        59.00000   58.00000  1.69%  26.2   10s
  9733  1051   58.00000   24   12   59.00000   58.00000  1.69%  24.4   15s
 11342  1224   58.00000   32   14   59.00000   58.00000  1.69%  24.3   20s
 15863  1694   58.00000   28   67   59.00000   58.00000  1.69%  24.3   25s
 20443  1755   58.00000   27   55   59.00000   58.00000  1.69%  24.1   30s
 25168  1956     cutoff   33        59.00000   58.00000  1.69%  23.9   35s
 30215  2006   58.00000   26   46   59.00000   58.00000  1.69%  23.0   40s
 35457  1945   58.00000   24   46   59.00000   58.00000  1.69%  22.2   45s
 40265  1947   58.00000   28   47   59.00000   58.00000  1.69%  21.8   50s
 45429  1886     cutoff   40        59.00000   58.00000  1.69%  21.4   55s
 50131  1612   58.00000   37   38   59.00000   58.00000  1.69%  21.3   60s
 54626  1492   58.00000   34   80   59.00000   58.00000  1.69%  21.3   65s
 58358  1439   58.00000   36   43   59.00000   58.00000  1.69%  22.0   70s
 62870  1445     cutoff   41        59.00000   58.00000  1.69%  22.0   75s
 67294  1387   58.00000   23   56   59.00000   58.00000  1.69%  22.1   80s
 71806  1311   58.00000   32   98   59.00000   58.00000  1.69%  22.2   85s
 76693  1250   58.00000   45   55   59.00000   58.00000  1.69%  22.1   90s
 81020  1083     cutoff   37        59.00000   58.00000  1.69%  22.2   95s
 85923   813   58.00000   36   58   59.00000   58.00000  1.69%  22.1  100s
 90863   738   58.00000   29   80   59.00000   58.00000  1.69%  22.0  105s
 95805   497     cutoff   47        59.00000   58.00000  1.69%  22.0  110s
 100067   168     cutoff   31        59.00000   58.00000  1.69%  22.2  115s

Cutting planes:
  User: 1
  Learned: 3
  Gomory: 16
  Cover: 66
  Implied bound: 13
  Clique: 4
  MIR: 40
  StrongCG: 1
  Flow cover: 77
  GUB cover: 30
  Inf proof: 6
  Zero half: 56
  Mod-K: 1
  RLT: 18
  Relax-and-lift: 15
  BQP: 8

Explored 102824 nodes (2294415 simplex iterations) in 118.15 seconds (81.00 work units)
Thread count was 1 (of 16 available processors)

Solution count 10: 59 59 60 ... 74

Optimal solution found (tolerance 1.00e-04)
Best objective 5.900000000000e+01, best bound 5.900000000000e+01, gap 0.0000%

User-callback calls 247853, time in user-callback 1.99 sec

 sepatime7.840329181556519e13 369892 30
59.0Stat(MathOptInterface.OPTIMAL, 59.0, 59.0, 0.0, 7.840329181556519e13, 1.329399, 118.15231585502625, 102824, Main.CFLG.LEFPAV, "", #undef)
